20 63 
1 5 1
1 6 1
1 7 1
1 8 1
1 10 1
1 14 1
1 15 1
1 17 1
2 5 1
2 6 1
2 9 1
3 5 1
3 6 1
3 8 1
3 9 1
3 10 1
3 13 1
4 5 1
4 7 1
4 8 1
4 9 1
4 11 1
4 12 1
4 13 1
4 14 1
4 16 1
4 17 1
5 6 1
5 7 1
5 9 1
5 10 1
5 11 1
5 13 1
5 15 1
5 16 1
5 19 1
6 8 1
6 12 1
6 19 1
6 20 1
7 10 1
7 11 1
7 12 1
7 13 1
7 14 1
7 18 1
8 14 1
8 15 1
9 11 1
9 12 1
9 16 1
9 19 1
11 17 1
11 18 1
11 19 1
11 20 1
12 17 1
12 18 1
13 15 1
13 16 1
13 18 1
15 20 1
19 20 1
